c dimacs generated by FastEx
c f501 25
c f510 24
c f511 23
c g51 16
c s512 17
c s513 18
c s514 20
c s523 19
c s524 21
c s534 22
c x51 1
c x510 10
c x511 11
c x512 12
c x513 13
c x514 14
c x515 15
c x52 2
c x53 3
c x54 4
c x55 5
c x56 6
c x57 7
c x58 8
c x59 9
p cnf 25 179
-17 -1 0
-17 -2 0
-17 -3 0
-17 4 -25 0
-17 -4 25 0
-17 5 -25 0
-17 -5 25 0
-17 6 -25 0
-17 -6 25 0
-17 7 -25 0
-17 -7 25 0
-17 8 -24 0
-17 -8 24 0
-17 9 -24 0
-17 -9 24 0
-17 10 -24 0
-17 -10 24 0
-17 11 -24 0
-17 -11 24 0
-17 12 -23 0
-17 -12 23 0
-17 13 -23 0
-17 -13 23 0
-17 14 -23 0
-17 -14 23 0
-17 15 -23 0
-17 -15 23 0
-18 -1 0
-18 2 -25 0
-18 -2 25 0
-18 3 -25 0
-18 -3 25 0
-18 -4 0
-18 -5 0
-18 6 -25 0
-18 -6 25 0
-18 7 -25 0
-18 -7 25 0
-18 8 -24 0
-18 -8 24 0
-18 9 -24 0
-18 -9 24 0
-18 10 -23 0
-18 -10 23 0
-18 11 -23 0
-18 -11 23 0
-18 12 -24 0
-18 -12 24 0
-18 13 -24 0
-18 -13 24 0
-18 14 -23 0
-18 -14 23 0
-18 15 -23 0
-18 -15 23 0
-19 -1 0
-19 2 -25 0
-19 -2 25 0
-19 3 -25 0
-19 -3 25 0
-19 4 -24 0
-19 -4 24 0
-19 5 -24 0
-19 -5 24 0
-19 6 -23 0
-19 -6 23 0
-19 7 -23 0
-19 -7 23 0
-19 -8 0
-19 -9 0
-19 10 -25 0
-19 -10 25 0
-19 11 -25 0
-19 -11 25 0
-19 12 -24 0
-19 -12 24 0
-19 13 -24 0
-19 -13 24 0
-19 14 -23 0
-19 -14 23 0
-19 15 -23 0
-19 -15 23 0
-20 1 -25 0
-20 -1 25 0
-20 -2 0
-20 3 -25 0
-20 -3 25 0
-20 -4 0
-20 5 -25 0
-20 -5 25 0
-20 -6 0
-20 7 -25 0
-20 -7 25 0
-20 8 -24 0
-20 -8 24 0
-20 9 -23 0
-20 -9 23 0
-20 10 -24 0
-20 -10 24 0
-20 11 -23 0
-20 -11 23 0
-20 12 -24 0
-20 -12 24 0
-20 13 -23 0
-20 -13 23 0
-20 14 -24 0
-20 -14 24 0
-20 15 -23 0
-20 -15 23 0
-21 1 -25 0
-21 -1 25 0
-21 -2 0
-21 3 -25 0
-21 -3 25 0
-21 4 -24 0
-21 -4 24 0
-21 5 -23 0
-21 -5 23 0
-21 6 -24 0
-21 -6 24 0
-21 7 -23 0
-21 -7 23 0
-21 -8 0
-21 9 -25 0
-21 -9 25 0
-21 -10 0
-21 11 -25 0
-21 -11 25 0
-21 12 -24 0
-21 -12 24 0
-21 13 -23 0
-21 -13 23 0
-21 14 -24 0
-21 -14 24 0
-21 15 -23 0
-21 -15 23 0
-22 1 -25 0
-22 -1 25 0
-22 2 -24 0
-22 -2 24 0
-22 3 -23 0
-22 -3 23 0
-22 -4 0
-22 5 -25 0
-22 -5 25 0
-22 6 -24 0
-22 -6 24 0
-22 7 -23 0
-22 -7 23 0
-22 -8 0
-22 9 -25 0
-22 -9 25 0
-22 10 -24 0
-22 -10 24 0
-22 11 -23 0
-22 -11 23 0
-22 -12 0
-22 13 -25 0
-22 -13 25 0
-22 14 -24 0
-22 -14 24 0
-22 15 -23 0
-22 -15 23 0
-16 -1 0
-16 -2 0
-16 -3 0
-16 -4 0
-16 -5 0
-16 -6 0
-16 -7 0
-16 -8 0
-16 -9 0
-16 -10 0
-16 -11 0
-16 -12 0
-16 -13 0
-16 -14 0
-16 15 0
16 0
17 18 19 20 21 22 0
